26 97
15 21
23 25
8 18
9 17
6 20
18 19
3 6
3 15
14 24
17 23
4 23
9 19
15 25
18 21
20 24
1 10
10 22
3 10
5 7
12 22
5 16
5 25
1 3
10 15
10 24
13 23
7 16
3 12
22 25
12 24
23 24
4 20
9 16
1 14
13 16
7 9
24 25
2 22
6 22
20 21
12 17
4 13
17 25
19 22
10 19
13 18
11 18
0 18
7 11
1 25
6 15
6 24
1 9
19 24
11 20
6 8
20 25
3 18
14 18
17 20
1 11
11 13
2 10
1 20
6 19
12 14
0 6
17 22
10 16
6 12
7 20
9 11
0 8
19 21
10 18
0 17
13 20
6 14
6 23
16 25
7 22
5 15
5 24
19 23
0 19
6 16
16 18
18 24
5 8
14 20
5 17
8 16
10 13
11 12
0 12
11 21
13 15
